(set-logic QF_SLIA)
(declare-fun var0 () String)
(assert (not (str.in_re var0 (re.++ ((_ re.loop 19 190) (re.++ (re.union (str.to_re "a") (re.union (str.to_re "U") (re.union (str.to_re "QS") (str.to_re "_Kz")))) (re.++ (re.union (str.to_re "=9|") (re.union (str.to_re "Cg^") (re.union (str.to_re "k=") (str.to_re "a_*")))) (re.++ (re.union (str.to_re "s") (re.union (str.to_re "d&P") (re.union (str.to_re "P8") (str.to_re "j")))) (re.union (str.to_re "=4/") (re.union (str.to_re "U") (re.union (str.to_re "jI") (str.to_re "i.w")))))))) (re.++ ((_ re.loop 2 531) (re.++ (re.union (str.to_re "6,") (re.union (str.to_re "/!") (re.union (str.to_re "{H") (str.to_re ".E")))) (re.++ (re.union (str.to_re ";/") (re.union (str.to_re "\u0022|3") (re.union (str.to_re "bOK") (str.to_re "0")))) (re.++ (re.union (str.to_re "v") (re.union (str.to_re "R?%") (re.union (str.to_re "M=d") (str.to_re "_")))) (re.union (str.to_re "?&c") (re.union (str.to_re "<cG") (re.union (str.to_re "2|k") (str.to_re "v!")))))))) (re.++ ((_ re.loop 15 906) (re.++ (re.union (str.to_re "37]") (re.union (str.to_re "<") (re.union (str.to_re "%$T") (str.to_re "F")))) (re.++ (re.union (str.to_re "25") (re.union (str.to_re "&") (re.union (str.to_re "zd") (str.to_re "w")))) (re.++ (re.union (str.to_re "fR") (re.union (str.to_re "@z>") (re.union (str.to_re "yo") (str.to_re "5.;")))) (re.union (str.to_re "J") (re.union (str.to_re "H*=") (re.union (str.to_re ")") (str.to_re "I)")))))))) ((_ re.loop 19 396) (re.++ (re.union (str.to_re "#JP") (re.union (str.to_re ";6~") (re.union (str.to_re "Ubw") (str.to_re "V")))) (re.++ (re.union (str.to_re "A~") (re.union (str.to_re "&") (re.union (str.to_re "B\u0022>") (str.to_re "$gG")))) (re.++ (re.union (str.to_re "V%>") (re.union (str.to_re ";eN") (re.union (str.to_re "_") (str.to_re "Bt")))) (re.union (str.to_re "{") (re.union (str.to_re "jd") (re.union (str.to_re "hrg") (str.to_re "mH"))))))))))))))
(assert (not (str.in_re var0 (re.++ ((_ re.loop 3 72) (re.++ (re.union (str.to_re "CL#") (re.union (str.to_re "O%") (re.union (str.to_re "TG") (str.to_re "6R!")))) (re.++ (re.union (str.to_re "xg") (re.union (str.to_re "U") (re.union (str.to_re "f") (str.to_re "Bcw")))) (re.++ (re.union (str.to_re "tE") (re.union (str.to_re "~") (re.union (str.to_re "v") (str.to_re "<\u0022^")))) (re.union (str.to_re "l") (re.union (str.to_re "d") (re.union (str.to_re "JU7") (str.to_re "M`")))))))) (re.++ ((_ re.loop 16 461) (re.++ (re.union (str.to_re "<") (re.union (str.to_re "E!/") (re.union (str.to_re "oa") (str.to_re "n9'")))) (re.++ (re.union (str.to_re "=") (re.union (str.to_re "&nj") (re.union (str.to_re "cw6") (str.to_re "`A$")))) (re.++ (re.union (str.to_re "7") (re.union (str.to_re "Iul") (re.union (str.to_re "ih") (str.to_re "8")))) (re.union (str.to_re "|aR") (re.union (str.to_re "j") (re.union (str.to_re "!") (str.to_re "k")))))))) (re.++ ((_ re.loop 2 869) (re.++ (re.union (str.to_re ")-J") (re.union (str.to_re "lS") (re.union (str.to_re "qOJ") (str.to_re "_")))) (re.++ (re.union (str.to_re "8") (re.union (str.to_re "E") (re.union (str.to_re "L0") (str.to_re ":K")))) (re.++ (re.union (str.to_re "/e\\") (re.union (str.to_re "B") (re.union (str.to_re "#") (str.to_re ",")))) (re.union (str.to_re "'l>") (re.union (str.to_re "|TU") (re.union (str.to_re "}") (str.to_re "&dZ")))))))) ((_ re.loop 17 154) (re.++ (re.union (str.to_re "*") (re.union (str.to_re "bk1") (re.union (str.to_re "B") (str.to_re "1")))) (re.++ (re.union (str.to_re "x+") (re.union (str.to_re "2m") (re.union (str.to_re "r8w") (str.to_re "T;[")))) (re.++ (re.union (str.to_re "\u0022k") (re.union (str.to_re "Bw") (re.union (str.to_re "S$") (str.to_re ",4")))) (re.union (str.to_re "]") (re.union (str.to_re "W[u") (re.union (str.to_re "')#") (str.to_re "4"))))))))))))))
(assert (not (str.in_re var0 (re.++ (re.* re.allchar) (re.++ (re.union (str.to_re "<") (re.union (str.to_re ">") (re.union (str.to_re "'") (re.union (str.to_re "\u0022") (str.to_re "&"))))) (re.* re.allchar))))))
(assert (<= 50 (str.len var0)))
(check-sat)
(get-model)
